c uprop, v00.0, 
c reading from data/prog564.c.cnf
c done reading: 0
p cnf 179 877
-84 -104 0
-84 -101 0
84 101 104 0
-78 101 104 0
-78 -101 -104 0
78 101 -104 0
78 -101 104 0
84 -96 0
-94 -96 0
-84 94 96 0
-84 -89 94 0
84 -89 -94 0
84 89 94 0
-84 89 -94 0
-85 96 0
-82 -85 0
82 85 -96 0
-80 82 -96 0
-80 -82 96 0
80 82 96 0
80 -82 -96 0
-79 85 0
-76 -79 0
76 79 -85 0
76 -85 -102 0
-76 85 -102 0
76 85 102 0
-76 -85 102 0
79 -106 0
-98 -106 0
-79 98 106 0
-79 98 -107 0
79 -98 -107 0
79 98 107 0
-79 -98 107 0
106 -108 0
-91 -108 0
91 -106 108 0
91 -106 -109 0
-91 106 -109 0
91 106 109 0
-91 -106 109 0
108 -110 0
-87 -110 0
87 -108 110 0
87 -108 -111 0
-87 108 -111 0
87 108 111 0
-87 -108 111 0
101 -112 0
104 -112 0
-101 -104 112 0
-101 -104 -113 0
101 104 -113 0
-101 104 113 0
101 -104 113 0
-94 -101 114 0
-94 -112 114 0
-101 -112 114 0
94 101 -114 0
94 112 -114 0
101 112 -114 0
94 -114 -115 0
101 -114 -115 0
112 -114 -115 0
-94 114 115 0
-101 114 115 0
-112 114 115 0
-94 -101 -112 115 0
94 101 112 -115 0
-82 -94 116 0
-82 -114 116 0
-94 -114 116 0
82 94 -116 0
82 114 -116 0
94 114 -116 0
82 -116 -117 0
94 -116 -117 0
114 -116 -117 0
-82 116 117 0
-94 116 117 0
-114 116 117 0
-82 -94 -114 117 0
82 94 114 -117 0
-76 -82 118 0
-76 -116 118 0
-82 -116 118 0
76 82 -118 0
76 116 -118 0
82 116 -118 0
-74 76 -118 0
-74 82 -118 0
-74 116 -118 0
74 -76 118 0
74 -82 118 0
74 -116 118 0
74 -76 -82 -116 0
-74 76 82 116 0
73 -76 -98 0
73 -98 -118 0
73 -76 -118 0
-73 76 98 0
-73 98 118 0
-73 76 118 0
-72 -73 98 0
-72 -73 76 0
-72 -73 118 0
72 73 -98 0
72 73 -76 0
72 73 -118 0
72 -76 -98 -118 0
-72 76 98 118 0
71 -91 -98 0
71 -73 -91 0
71 -73 -98 0
-71 91 98 0
-71 73 91 0
-71 73 98 0
-70 -71 91 0
-70 -71 98 0
-70 -71 73 0
70 71 -91 0
70 71 -98 0
70 71 -73 0
70 -73 -91 -98 0
-70 73 91 98 0
69 -87 -91 0
69 -71 -87 0
69 -71 -91 0
-69 87 91 0
-69 71 87 0
-69 71 91 0
-69 87 -103 0
-69 91 -103 0
-69 71 -103 0
69 -87 103 0
69 -91 103 0
69 -71 103 0
-71 -87 -91 103 0
71 87 91 -103 0
87 -100 0
69 -100 0
-69 -87 100 0
-69 -87 -93 0
69 87 -93 0
69 -87 93 0
-69 87 93 0
-81 115 0
-81 104 0
81 -104 -115 0
-75 -104 -115 0
-75 104 115 0
75 104 -115 0
75 -104 115 0
97 -101 -117 0
-81 97 -117 0
-81 97 -101 0
-97 101 117 0
81 -97 117 0
81 -97 101 0
-90 -97 117 0
-90 -97 101 0
81 -90 -97 0
90 97 -117 0
90 97 -101 0
-81 90 97 0
-81 90 -101 -117 0
81 -90 101 117 0
-74 86 -94 0
-74 86 -97 0
86 -94 -97 0
74 -86 94 0
74 -86 97 0
-86 94 97 0
-68 74 -86 0
-68 -86 94 0
-68 -86 97 0
68 -74 86 0
68 86 -94 0
68 86 -97 0
68 -74 -94 -97 0
-68 74 94 97 0
67 -72 -82 0
67 -72 -86 0
67 -82 -86 0
-67 72 82 0
-67 72 86 0
-67 82 86 0
-66 -67 72 0
-66 -67 82 0
-66 -67 86 0
66 67 -72 0
66 67 -82 0
66 67 -86 0
66 -72 -82 -86 0
-66 72 82 86 0
65 -70 -76 0
65 -67 -70 0
65 -67 -76 0
-65 70 76 0
-65 67 70 0
-65 67 76 0
-64 -65 70 0
-64 -65 76 0
-64 -65 67 0
64 65 -70 0
64 65 -76 0
64 65 -67 0
64 -67 -70 -76 0
-64 67 70 76 0
63 -98 -103 0
63 -65 -103 0
63 -65 -98 0
-63 98 103 0
-63 65 103 0
-63 65 98 0
-62 -63 103 0
-62 -63 98 0
-62 -63 65 0
62 63 -103 0
62 63 -98 0
62 63 -65 0
62 -65 -98 -103 0
-62 65 98 103 0
61 -91 -93 0
61 -63 -93 0
61 -63 -91 0
-61 91 93 0
-61 63 93 0
-61 63 91 0
-60 -61 93 0
-60 -61 91 0
-60 -61 63 0
60 61 -93 0
60 61 -91 0
60 61 -63 0
60 -63 -91 -93 0
-60 63 91 93 0
59 -87 -100 0
59 -61 -100 0
59 -61 -87 0
-59 87 100 0
-59 61 100 0
-59 61 87 0
-58 -59 100 0
-58 -59 87 0
-58 -59 61 0
58 59 -100 0
58 59 -87 0
58 59 -61 0
58 -61 -87 -100 0
-58 61 87 100 0
-57 90 0
-57 104 0
57 -90 -104 0
-56 -90 -104 0
-56 90 104 0
56 -90 104 0
56 90 -104 0
55 -68 -101 0
55 -57 -68 0
55 -57 -101 0
-55 68 101 0
-55 57 68 0
-55 57 101 0
-54 -55 68 0
-54 -55 101 0
-54 -55 57 0
54 55 -68 0
54 55 -101 0
54 55 -57 0
54 -57 -68 -101 0
-54 57 68 101 0
53 -66 -94 0
53 -55 -66 0
53 -55 -94 0
-53 66 94 0
-53 55 66 0
-53 55 94 0
-53 66 -119 0
-53 94 -119 0
-53 55 -119 0
53 -66 119 0
53 -94 119 0
53 -55 119 0
-55 -66 -94 119 0
55 66 94 -119 0
-64 -82 120 0
-53 -64 120 0
-53 -82 120 0
64 82 -120 0
53 64 -120 0
53 82 -120 0
64 -120 -121 0
82 -120 -121 0
53 -120 -121 0
-64 120 121 0
-82 120 121 0
-53 120 121 0
-53 -64 -82 121 0
53 64 82 -121 0
-62 -76 122 0
-62 -120 122 0
-76 -120 122 0
62 76 -122 0
62 120 -122 0
76 120 -122 0
62 -122 -123 0
76 -122 -123 0
120 -122 -123 0
-62 122 123 0
-76 122 123 0
-120 122 123 0
-62 -76 -120 123 0
62 76 120 -123 0
-60 -98 124 0
-60 -122 124 0
-98 -122 124 0
60 98 -124 0
60 122 -124 0
98 122 -124 0
60 -124 -125 0
98 -124 -125 0
122 -124 -125 0
-60 124 125 0
-98 124 125 0
-122 124 125 0
-60 -98 -122 125 0
60 98 122 -125 0
-58 -91 126 0
-58 -124 126 0
-91 -124 126 0
58 91 -126 0
58 124 -126 0
91 124 -126 0
58 -126 -127 0
91 -126 -127 0
124 -126 -127 0
-58 126 127 0
-91 126 127 0
-124 126 127 0
-58 -91 -124 127 0
58 91 124 -127 0
-59 -87 128 0
-59 -126 128 0
-87 -126 128 0
59 87 -128 0
59 126 -128 0
87 126 -128 0
59 -128 -129 0
87 -128 -129 0
126 -128 -129 0
-59 128 129 0
-87 128 129 0
-126 128 129 0
-59 -87 -126 129 0
59 87 126 -129 0
-104 -130 0
-113 -130 0
104 113 130 0
104 113 -131 0
-104 -113 -131 0
-104 113 131 0
104 -113 131 0
130 -132 0
-75 -132 0
75 -130 132 0
75 -130 -133 0
-75 130 -133 0
75 130 133 0
-75 -130 133 0
132 -134 0
-56 -134 0
56 -132 134 0
56 -132 -135 0
-56 132 -135 0
56 132 135 0
-56 -132 135 0
134 -136 0
-54 -136 0
54 -134 136 0
54 -134 -137 0
-54 134 -137 0
54 134 137 0
-54 -134 137 0
136 -138 0
-119 -138 0
119 -136 138 0
119 -136 -139 0
-119 136 -139 0
119 136 139 0
-119 -136 139 0
138 -140 0
-121 -140 0
121 -138 140 0
121 -138 -141 0
-121 138 -141 0
121 138 141 0
-121 -138 141 0
140 -142 0
-123 -142 0
123 -140 142 0
123 -140 -143 0
-123 140 -143 0
123 140 143 0
-123 -140 143 0
142 -144 0
-125 -144 0
125 -142 144 0
125 -142 -145 0
-125 142 -145 0
125 142 145 0
-125 -142 145 0
144 -146 0
-127 -146 0
127 -144 146 0
127 -144 -147 0
-127 144 -147 0
127 144 147 0
-127 -144 147 0
146 -148 0
-129 -148 0
129 -146 148 0
129 -146 -149 0
-129 146 -149 0
129 146 149 0
-129 -146 149 0
148 -150 0
-128 -150 0
128 -148 150 0
128 -148 -151 0
-128 148 -151 0
128 148 151 0
-128 -148 151 0
-152 -154 0
152 154 0
-155 -157 0
155 157 0
-158 -160 0
158 160 0
-161 -163 0
161 163 0
-164 -166 0
164 166 0
-105 -167 0
105 167 0
-95 -169 0
95 169 0
-83 152 0
83 -152 0
-77 -152 0
77 152 0
99 -152 -155 0
-83 99 -155 0
-83 99 -152 0
-99 152 155 0
83 -99 155 0
83 -99 152 0
-92 -99 155 0
-92 -99 152 0
83 -92 -99 0
92 99 -155 0
92 99 -152 0
-83 92 99 0
-83 92 -152 -155 0
83 -92 152 155 0
88 -155 -158 0
88 -99 -158 0
88 -99 -155 0
-88 155 158 0
-88 99 158 0
-88 99 155 0
-88 158 -171 0
-88 155 -171 0
-88 99 -171 0
88 -158 171 0
88 -155 171 0
88 -99 171 0
-99 -155 -158 171 0
99 155 158 -171 0
153 -158 -161 0
-88 153 -161 0
-88 153 -158 0
-153 158 161 0
88 -153 161 0
88 -153 158 0
-153 -156 161 0
-153 -156 158 0
88 -153 -156 0
153 156 -161 0
153 156 -158 0
-88 153 156 0
-88 156 -158 -161 0
88 -156 158 161 0
159 -161 -164 0
-153 159 -164 0
-153 159 -161 0
-159 161 164 0
153 -159 164 0
153 -159 161 0
-159 -162 164 0
-159 161 -162 0
153 -159 -162 0
159 162 -164 0
159 -161 162 0
-153 159 162 0
-153 -161 162 -164 0
153 161 -162 164 0
-164 165 -167 0
-159 165 -167 0
-159 -164 165 0
164 -165 167 0
159 -165 167 0
159 164 -165 0
-165 167 -168 0
164 -165 -168 0
159 -165 -168 0
165 -167 168 0
-164 165 168 0
-159 165 168 0
-159 -164 -167 168 0
159 164 167 -168 0
-167 -169 170 0
-165 -169 170 0
-165 -167 170 0
167 169 -170 0
165 169 -170 0
165 167 -170 0
169 -170 -172 0
167 -170 -172 0
165 -170 -172 0
-169 170 172 0
-167 170 172 0
-165 170 172 0
-165 -167 -169 172 0
165 167 169 -172 0
169 -173 0
170 -173 0
-169 -170 173 0
-169 -170 -174 0
169 170 -174 0
-169 170 174 0
169 -170 174 0
92 -175 0
-92 175 0
-92 -176 0
92 176 0
-152 -171 177 0
-171 -175 177 0
-152 -175 177 0
152 171 -177 0
171 175 -177 0
152 175 -177 0
171 -177 -178 0
152 -177 -178 0
175 -177 -178 0
-171 177 178 0
-152 177 178 0
-175 177 178 0
-152 -171 -175 178 0
152 171 175 -178 0
-155 -156 179 0
-156 -177 179 0
-155 -177 179 0
155 156 -179 0
156 177 -179 0
155 177 -179 0
-52 156 -179 0
-52 155 -179 0
-52 177 -179 0
52 -156 179 0
52 -155 179 0
52 -177 179 0
52 -155 -156 -177 0
-52 155 156 177 0
51 -158 -162 0
51 -162 -179 0
51 -158 -179 0
-51 158 162 0
-51 162 179 0
-51 158 179 0
-50 -51 162 0
-50 -51 158 0
-50 -51 179 0
50 51 -162 0
50 51 -158 0
50 51 -179 0
50 -158 -162 -179 0
-50 158 162 179 0
49 -161 -168 0
49 -51 -168 0
49 -51 -161 0
-49 161 168 0
-49 51 168 0
-49 51 161 0
-48 -49 168 0
-48 -49 161 0
-48 -49 51 0
48 49 -168 0
48 49 -161 0
48 49 -51 0
48 -51 -161 -168 0
-48 51 161 168 0
47 -164 -172 0
47 -49 -172 0
47 -49 -164 0
-47 164 172 0
-47 49 172 0
-47 49 164 0
-46 -47 172 0
-46 -47 164 0
-46 -47 49 0
46 47 -172 0
46 47 -164 0
46 47 -49 0
46 -49 -164 -172 0
-46 49 164 172 0
45 -167 -174 0
45 -47 -174 0
45 -47 -167 0
-45 167 174 0
-45 47 174 0
-45 47 167 0
-44 -45 174 0
-44 -45 167 0
-44 -45 47 0
44 45 -174 0
44 45 -167 0
44 45 -47 0
44 -47 -167 -174 0
-44 47 167 174 0
43 -169 -173 0
43 -45 -173 0
43 -45 -169 0
-43 169 173 0
-43 45 173 0
-43 45 169 0
-42 -43 173 0
-42 -43 169 0
-42 -43 45 0
42 43 -173 0
42 43 -169 0
42 43 -45 0
42 -45 -169 -173 0
-42 45 169 173 0
-41 50 0
41 -50 0
-40 -50 0
40 50 0
39 -48 -152 0
39 -41 -48 0
39 -41 -152 0
-39 48 152 0
-39 41 48 0
-39 41 152 0
-38 -39 48 0
-38 -39 152 0
-38 -39 41 0
38 39 -48 0
38 39 -152 0
38 39 -41 0
38 -41 -48 -152 0
-38 41 48 152 0
37 -46 -155 0
37 -39 -46 0
37 -39 -155 0
-37 46 155 0
-37 39 46 0
-37 39 155 0
-36 -37 46 0
-36 -37 155 0
-36 -37 39 0
36 37 -46 0
36 37 -155 0
36 37 -39 0
36 -39 -46 -155 0
-36 39 46 155 0
35 -44 -158 0
35 -37 -44 0
35 -37 -158 0
-35 44 158 0
-35 37 44 0
-35 37 158 0
-34 -35 44 0
-34 -35 158 0
-34 -35 37 0
34 35 -44 0
34 35 -158 0
34 35 -37 0
34 -37 -44 -158 0
-34 37 44 158 0
33 -42 -161 0
33 -35 -42 0
33 -35 -161 0
-33 42 161 0
-33 35 42 0
-33 35 161 0
-32 -33 42 0
-32 -33 161 0
-32 -33 35 0
32 33 -42 0
32 33 -161 0
32 33 -35 0
32 -35 -42 -161 0
-32 35 42 161 0
31 -43 -164 0
31 -33 -43 0
31 -33 -164 0
-31 43 164 0
-31 33 43 0
-31 33 164 0
-30 -31 43 0
-30 -31 164 0
-30 -31 33 0
30 31 -43 0
30 31 -164 0
30 31 -33 0
30 -33 -43 -164 0
-30 33 43 164 0
-29 167 0
-29 31 0
29 -31 -167 0
-28 -31 -167 0
-28 31 167 0
28 31 -167 0
28 -31 167 0
-27 169 0
-27 29 0
27 -29 -169 0
-26 -29 -169 0
-26 29 169 0
26 29 -169 0
26 -29 169 0
-25 -77 0
25 77 0
-24 -176 0
24 176 0
-23 -178 0
23 178 0
-22 -52 0
22 52 0
-21 -40 0
21 40 0
-20 -38 0
20 38 0
-19 -36 0
19 36 0
-18 -34 0
18 34 0
-17 -32 0
17 32 0
-16 -30 0
16 30 0
-15 -28 0
15 28 0
-14 -26 0
14 26 0
-13 -27 0
13 27 0
-12 104 0
-12 77 0
12 -77 -104 0
-77 -104 0
77 104 0
11 -113 -176 0
11 -12 -113 0
11 -12 -176 0
-11 113 176 0
-11 12 113 0
-11 12 176 0
11 -113 0
11 -176 0
11 -12 0
-12 -113 -176 0
10 -75 -178 0
10 -11 -75 0
10 -11 -178 0
-10 75 178 0
-10 11 75 0
-10 11 178 0
10 -75 0
10 -178 0
10 -11 0
-11 -75 -178 0
9 -52 -56 0
9 -10 -56 0
9 -10 -52 0
-9 52 56 0
-9 10 56 0
-9 10 52 0
9 -56 0
9 -52 0
9 -10 0
-10 -52 -56 0
8 -40 -54 0
8 -9 -54 0
8 -9 -40 0
-8 40 54 0
-8 9 54 0
-8 9 40 0
-8 54 0
-8 40 0
-8 9 0
9 40 54 0
7 -38 -119 0
7 -8 -119 0
7 -8 -38 0
-7 38 119 0
-7 8 119 0
-7 8 38 0
7 -119 0
7 -38 0
7 -8 0
-8 -38 -119 0
6 -36 -121 0
6 -7 -121 0
6 -7 -36 0
-6 36 121 0
-6 7 121 0
-6 7 36 0
-6 121 0
-6 36 0
-6 7 0
7 36 121 0
5 -34 -123 0
5 -6 -123 0
5 -6 -34 0
-5 34 123 0
-5 6 123 0
-5 6 34 0
5 -123 0
5 -34 0
5 -6 0
-6 -34 -123 0
4 -32 -125 0
4 -5 -125 0
4 -5 -32 0
-4 32 125 0
-4 5 125 0
-4 5 32 0
4 -125 0
4 -32 0
4 -5 0
-5 -32 -125 0
3 -30 -127 0
3 -4 -127 0
3 -4 -30 0
-3 30 127 0
-3 4 127 0
-3 4 30 0
3 -127 0
3 -30 0
3 -4 0
-4 -30 -127 0
2 -28 -129 0
2 -3 -129 0
2 -3 -28 0
-2 28 129 0
-2 3 129 0
-2 3 28 0
2 -129 0
2 -28 0
2 -3 0
-3 -28 -129 0
1 -26 -128 0
1 -2 -128 0
1 -2 -26 0
-1 26 128 0
-1 2 128 0
-1 2 26 0
1 -128 0
1 -26 0
1 -2 0
-2 -26 -128 0
-1 -27 0
1 -27 0
-1 27 0
